0000000000000000
0000000000000000
0011111111111000
0000000000001000
0000000000001000
0000000000001000
0000000000001000
0000000000001000
0000000000001000
0000000000001000
0011111111111110
0000000000000000
0000000000000000
0000000000000000
0000000000000000
0000000000000000
